(declare-fun c () String)
(declare-fun g () String)
(declare-fun b () String)
(declare-fun d () String)
(declare-fun f () String)
(declare-fun a () String)
(declare-fun h () String)
(assert (= (str.++ h f) (str.++ "c" a g d a "e")))
(assert (= (str.++ "bfeb" g f) (str.++ "b" d "ea")))
(assert (= (str.++ c "c" b) h))

(check-sat)
